(set-logic QF_S)
(declare-fun var0 () String)
(assert (RegexIn var0 (RegexConcat (RegexStar (RegexPlus (Str2Reg "00"))) (RegexConcat (RegexUnion (RegexPlus (Str2Reg "1")) (RegexPlus (Str2Reg "2"))) (RegexConcat (RegexUnion (RegexUnion (Str2Reg "33") (Str2Reg "444")) (RegexUnion (Str2Reg "55") (Str2Reg "666"))) (RegexConcat (RegexStar (RegexPlus (Str2Reg "77"))) (RegexConcat (RegexUnion (RegexStar (Str2Reg "888")) (RegexStar (Str2Reg "9"))) (RegexConcat (RegexPlus (RegexStar (Str2Reg "a"))) (RegexConcat (RegexStar (RegexUnion (Str2Reg "bb") (Str2Reg "c"))) (RegexConcat (RegexUnion (RegexStar (Str2Reg "ddd")) (RegexStar (Str2Reg "eee"))) (RegexConcat (RegexStar (RegexPlus (Str2Reg "f"))) (RegexConcat (RegexStar (RegexStar (Str2Reg "ggg"))) (RegexConcat (RegexUnion (RegexStar (Str2Reg "hh")) (RegexStar (Str2Reg "iii"))) (RegexConcat (RegexUnion (RegexStar (Str2Reg "j")) (RegexStar (Str2Reg "kkk"))) (RegexConcat (RegexPlus (RegexPlus (Str2Reg "lll"))) (RegexConcat (RegexUnion (RegexStar (Str2Reg "m")) (RegexStar (Str2Reg "nnn"))) (RegexConcat (RegexPlus (RegexStar (Str2Reg "o"))) (RegexConcat (RegexPlus (RegexStar (Str2Reg "p"))) (RegexConcat (RegexStar (RegexStar (Str2Reg "qqq"))) (RegexConcat (RegexUnion (RegexStar (Str2Reg "r")) (RegexStar (Str2Reg "s"))) (RegexConcat (RegexStar (RegexStar (Str2Reg "t"))) (RegexConcat (RegexPlus (RegexUnion (Str2Reg "u") (Str2Reg "vv"))) (RegexConcat (RegexStar (RegexPlus (Str2Reg "w"))) (RegexConcat (RegexStar (RegexStar (Str2Reg "x"))) (RegexConcat (RegexStar (RegexPlus (Str2Reg "yyy"))) (RegexConcat (RegexStar (RegexUnion (Str2Reg "z") (Str2Reg "A"))) (RegexConcat (RegexUnion (RegexStar (Str2Reg "BB")) (RegexStar (Str2Reg "C"))) (RegexConcat (RegexUnion (RegexPlus (Str2Reg "D")) (RegexPlus (Str2Reg "E"))) (RegexConcat (RegexStar (RegexUnion (Str2Reg "FFF") (Str2Reg "GG"))) (RegexConcat (RegexUnion (RegexUnion (Str2Reg "HH") (Str2Reg "II")) (RegexUnion (Str2Reg "JJ") (Str2Reg "K"))) (RegexConcat (RegexStar (RegexPlus (Str2Reg "L"))) (RegexConcat (RegexUnion (RegexUnion (Str2Reg "MMM") (Str2Reg "N")) (RegexUnion (Str2Reg "OOO") (Str2Reg "P"))) (RegexConcat (RegexPlus (RegexUnion (Str2Reg "QQQ") (Str2Reg "RRR"))) (RegexConcat (RegexUnion (RegexPlus (Str2Reg "SS")) (RegexPlus (Str2Reg "TTT"))) (RegexConcat (RegexUnion (RegexPlus (Str2Reg "U")) (RegexPlus (Str2Reg "VV"))) (RegexConcat (RegexUnion (RegexStar (Str2Reg "W")) (RegexStar (Str2Reg "XXX"))) (RegexConcat (RegexUnion (RegexStar (Str2Reg "Y")) (RegexStar (Str2Reg "ZZ"))) (RegexConcat (RegexUnion (RegexUnion (Str2Reg "!") (Str2Reg "\"")) (RegexUnion (Str2Reg "##") (Str2Reg "$$"))) (RegexConcat (RegexStar (RegexPlus (Str2Reg "%%"))) (RegexConcat (RegexStar (RegexUnion (Str2Reg "&&") (Str2Reg "'"))) (RegexConcat (RegexPlus (RegexPlus (Str2Reg "("))) (RegexConcat (RegexStar (RegexPlus (Str2Reg ")"))) (RegexConcat (RegexUnion (RegexPlus (Str2Reg "**")) (RegexPlus (Str2Reg "+++"))) (RegexConcat (RegexUnion (RegexPlus (Str2Reg ",,")) (RegexPlus (Str2Reg "-"))) (RegexConcat (RegexPlus (RegexStar (Str2Reg "."))) (RegexConcat (RegexUnion (RegexPlus (Str2Reg "/")) (RegexPlus (Str2Reg "::"))) (RegexConcat (RegexUnion (RegexPlus (Str2Reg ";")) (RegexPlus (Str2Reg "<"))) (RegexConcat (RegexUnion (RegexUnion (Str2Reg "===") (Str2Reg ">>>")) (RegexUnion (Str2Reg "?") (Str2Reg "@"))) (RegexConcat (RegexPlus (RegexPlus (Str2Reg "[[["))) (RegexConcat (RegexStar (RegexPlus (Str2Reg "\\\\"))) (RegexConcat (RegexStar (RegexStar (Str2Reg "]]"))) (RegexConcat (RegexPlus (RegexStar (Str2Reg "^^"))) (RegexConcat (RegexPlus (RegexPlus (Str2Reg "___"))) (RegexConcat (RegexPlus (RegexUnion (Str2Reg "```") (Str2Reg "{{"))) (RegexConcat (RegexPlus (RegexStar (Str2Reg "|||"))) (RegexConcat (RegexUnion (RegexStar (Str2Reg "}}}")) (RegexStar (Str2Reg "~"))) (RegexConcat (RegexStar (RegexStar (Str2Reg "0"))) (RegexConcat (RegexUnion (RegexStar (Str2Reg "111")) (RegexStar (Str2Reg "2"))) (RegexConcat (RegexUnion (RegexPlus (Str2Reg "33")) (RegexPlus (Str2Reg "44"))) (RegexConcat (RegexStar (RegexUnion (Str2Reg "555") (Str2Reg "6"))) (RegexConcat (RegexPlus (RegexUnion (Str2Reg "77") (Str2Reg "888"))) (RegexConcat (RegexPlus (RegexStar (Str2Reg "99"))) (RegexPlus (RegexStar (Str2Reg "a")))))))))))))))))))))))))))))))))))))))))))))))))))))))))))))))))
(assert (not (RegexIn var0 (RegexConcat (RegexPlus (RegexStar (Str2Reg "0"))) (RegexConcat (RegexPlus (RegexStar (Str2Reg "11"))) (RegexConcat (RegexUnion (RegexUnion (Str2Reg "22") (Str2Reg "33")) (RegexUnion (Str2Reg "4") (Str2Reg "555"))) (RegexConcat (RegexPlus (RegexPlus (Str2Reg "666"))) (RegexConcat (RegexPlus (RegexStar (Str2Reg "777"))) (RegexConcat (RegexPlus (RegexUnion (Str2Reg "888") (Str2Reg "9"))) (RegexConcat (RegexStar (RegexStar (Str2Reg "aa"))) (RegexConcat (RegexStar (RegexUnion (Str2Reg "bbb") (Str2Reg "cc"))) (RegexConcat (RegexUnion (RegexUnion (Str2Reg "dd") (Str2Reg "eee")) (RegexUnion (Str2Reg "fff") (Str2Reg "gg"))) (RegexConcat (RegexStar (RegexUnion (Str2Reg "hh") (Str2Reg "i"))) (RegexConcat (RegexStar (RegexStar (Str2Reg "jj"))) (RegexConcat (RegexPlus (RegexStar (Str2Reg "kk"))) (RegexConcat (RegexUnion (RegexUnion (Str2Reg "l") (Str2Reg "m")) (RegexUnion (Str2Reg "nn") (Str2Reg "ooo"))) (RegexConcat (RegexStar (RegexStar (Str2Reg "pp"))) (RegexConcat (RegexStar (RegexUnion (Str2Reg "q") (Str2Reg "rrr"))) (RegexConcat (RegexUnion (RegexPlus (Str2Reg "ss")) (RegexPlus (Str2Reg "ttt"))) (RegexConcat (RegexPlus (RegexPlus (Str2Reg "u"))) (RegexConcat (RegexPlus (RegexUnion (Str2Reg "vvv") (Str2Reg "ww"))) (RegexConcat (RegexStar (RegexUnion (Str2Reg "xx") (Str2Reg "y"))) (RegexConcat (RegexStar (RegexStar (Str2Reg "zzz"))) (RegexConcat (RegexUnion (RegexUnion (Str2Reg "AA") (Str2Reg "BBB")) (RegexUnion (Str2Reg "CC") (Str2Reg "DDD"))) (RegexConcat (RegexStar (RegexPlus (Str2Reg "EE"))) (RegexConcat (RegexStar (RegexStar (Str2Reg "F"))) (RegexConcat (RegexUnion (RegexStar (Str2Reg "G")) (RegexStar (Str2Reg "HH"))) (RegexConcat (RegexPlus (RegexStar (Str2Reg "II"))) (RegexConcat (RegexUnion (RegexUnion (Str2Reg "JJ") (Str2Reg "KKK")) (RegexUnion (Str2Reg "LLL") (Str2Reg "MM"))) (RegexConcat (RegexPlus (RegexPlus (Str2Reg "NN"))) (RegexConcat (RegexPlus (RegexUnion (Str2Reg "OO") (Str2Reg "P"))) (RegexConcat (RegexUnion (RegexPlus (Str2Reg "Q")) (RegexPlus (Str2Reg "RRR"))) (RegexConcat (RegexUnion (RegexStar (Str2Reg "SSS")) (RegexStar (Str2Reg "T"))) (RegexConcat (RegexStar (RegexPlus (Str2Reg "U"))) (RegexConcat (RegexUnion (RegexPlus (Str2Reg "V")) (RegexPlus (Str2Reg "WWW"))) (RegexConcat (RegexPlus (RegexStar (Str2Reg "XX"))) (RegexConcat (RegexStar (RegexPlus (Str2Reg "YYY"))) (RegexConcat (RegexPlus (RegexUnion (Str2Reg "ZZ") (Str2Reg "!!!"))) (RegexConcat (RegexUnion (RegexPlus (Str2Reg "\"")) (RegexPlus (Str2Reg "##"))) (RegexConcat (RegexStar (RegexPlus (Str2Reg "$"))) (RegexConcat (RegexPlus (RegexUnion (Str2Reg "%%") (Str2Reg "&&&"))) (RegexConcat (RegexStar (RegexUnion (Str2Reg "'") (Str2Reg "("))) (RegexConcat (RegexUnion (RegexPlus (Str2Reg ")))")) (RegexPlus (Str2Reg "**"))) (RegexConcat (RegexPlus (RegexUnion (Str2Reg "++") (Str2Reg ","))) (RegexConcat (RegexUnion (RegexPlus (Str2Reg "--")) (RegexPlus (Str2Reg ".."))) (RegexConcat (RegexPlus (RegexStar (Str2Reg "///"))) (RegexConcat (RegexUnion (RegexUnion (Str2Reg ":") (Str2Reg ";;;")) (RegexUnion (Str2Reg "<") (Str2Reg "=="))) (RegexConcat (RegexStar (RegexUnion (Str2Reg ">>") (Str2Reg "?"))) (RegexConcat (RegexUnion (RegexStar (Str2Reg "@@")) (RegexStar (Str2Reg "[[["))) (RegexConcat (RegexPlus (RegexPlus (Str2Reg "\\\\"))) (RegexConcat (RegexUnion (RegexPlus (Str2Reg "]]]")) (RegexPlus (Str2Reg "^"))) (RegexConcat (RegexPlus (RegexUnion (Str2Reg "_") (Str2Reg "`"))) (RegexConcat (RegexPlus (RegexUnion (Str2Reg "{{") (Str2Reg "||"))) (RegexConcat (RegexStar (RegexPlus (Str2Reg "}"))) (RegexConcat (RegexUnion (RegexPlus (Str2Reg "~~~")) (RegexPlus (Str2Reg "000"))) (RegexConcat (RegexStar (RegexUnion (Str2Reg "111") (Str2Reg "22"))) (RegexConcat (RegexUnion (RegexStar (Str2Reg "3")) (RegexStar (Str2Reg "44"))) (RegexConcat (RegexStar (RegexStar (Str2Reg "555"))) (RegexConcat (RegexStar (RegexStar (Str2Reg "6"))) (RegexConcat (RegexStar (RegexUnion (Str2Reg "777") (Str2Reg "888"))) (RegexConcat (RegexUnion (RegexUnion (Str2Reg "9") (Str2Reg "aa")) (RegexUnion (Str2Reg "bbb") (Str2Reg "ccc"))) (RegexConcat (RegexStar (RegexPlus (Str2Reg "ddd"))) (RegexConcat (RegexUnion (RegexPlus (Str2Reg "eee")) (RegexPlus (Str2Reg "ff"))) (RegexUnion (RegexPlus (Str2Reg "gg")) (RegexPlus (Str2Reg "h"))))))))))))))))))))))))))))))))))))))))))))))))))))))))))))))))))
(check-sat)